
n_res = 8;
rcap = [61, 54, 54, 54, 965, 879, 869, 738];
rtype = [1, 1, 1, 1, 2, 2, 2, 2];
n_tasks = 50;
modes =  [{1, 2, 3, 4, 5, 6}, {7, 8, 9, 10, 11, 12}, {13, 14, 15, 16, 17, 18}, {19, 20, 21, 22, 23, 24}, {25, 26, 27, 28, 29, 30}, {31, 32, 33, 34, 35, 36}, {37, 38, 39, 40, 41, 42}, {43, 44, 45, 46, 47, 48}, {49, 50, 51, 52, 53, 54}, {55, 56, 57, 58, 59, 60}, {61, 62, 63, 64, 65, 66}, {67, 68, 69, 70, 71, 72}, {73, 74, 75, 76, 77, 78}, {79, 80, 81, 82, 83, 84}, {85, 86, 87, 88, 89, 90}, {91, 92, 93, 94, 95, 96}, {97, 98, 99, 100, 101, 102}, {103, 104, 105, 106, 107, 108}, {109, 110, 111, 112, 113, 114}, {115, 116, 117, 118, 119, 120}, {121, 122, 123, 124, 125, 126}, {127, 128, 129, 130, 131, 132}, {133, 134, 135, 136, 137, 138}, {139, 140, 141, 142, 143, 144}, {145, 146, 147, 148, 149, 150}, {151, 152, 153, 154, 155, 156}, {157, 158, 159, 160, 161, 162}, {163, 164, 165, 166, 167, 168}, {169, 170, 171, 172, 173, 174}, {175, 176, 177, 178, 179, 180}, {181, 182, 183, 184, 185, 186}, {187, 188, 189, 190, 191, 192}, {193, 194, 195, 196, 197, 198}, {199, 200, 201, 202, 203, 204}, {205, 206, 207, 208, 209, 210}, {211, 212, 213, 214, 215, 216}, {217, 218, 219, 220, 221, 222}, {223, 224, 225, 226, 227, 228}, {229, 230, 231, 232, 233, 234}, {235, 236, 237, 238, 239, 240}, {241, 242, 243, 244, 245, 246}, {247, 248, 249, 250, 251, 252}, {253, 254, 255, 256, 257, 258}, {259, 260, 261, 262, 263, 264}, {265, 266, 267, 268, 269, 270}, {271, 272, 273, 274, 275, 276}, {277, 278, 279, 280, 281, 282}, {283, 284, 285, 286, 287, 288}, {289, 290, 291, 292, 293, 294}, {295, 296, 297, 298, 299, 300}];
succ =  [{15, 14, 12, 6}, {23, 18, 16, 15, 12, 8}, {14, 13, 11, 7}, {23, 16, 13, 11}, {23, 18, 16, 13}, {11, 7}, {22, 19, 17, 16}, {25, 21, 19, 13}, {22, 15, 12}, {25, 23, 22, 21, 20, 19}, {25, 24, 21, 20, 19}, {26, 25, 21, 17}, {26, 22, 17}, {23, 22, 21}, {29, 26, 25, 24}, {26, 25, 21}, {24, 20}, {24, 20}, {35, 29, 28, 27, 26}, {36, 35, 31, 29, 27}, {36, 29, 28, 27}, {35, 24}, {29, 28, 27}, {28, 27}, {35, 32, 27}, {36, 34, 31, 30}, {37, 34, 30}, {38, 37, 31}, {37, 33, 32}, {41, 39, 38, 33}, {33, 32}, {43, 41, 39}, {45, 43, 40}, {45, 40}, {43, 40}, {45, 40}, {45, 41}, {50, 49, 47, 44, 42}, {50, 45, 44, 42}, {50, 49, 44, 42}, {49, 47, 44, 42}, {48, 46}, {47, 46}, {46}, {47}, {}, {}, {}, {}, {}];
n_opt = 300;
dur = [10, 14, 18, 21, 28, 30, 6, 12, 13, 16, 25, 28, 3, 4, 12, 14, 22, 29, 20, 21, 22, 23, 25, 28, 1, 3, 10, 14, 21, 23, 5, 6, 20, 21, 22, 24, 3, 8, 17, 19, 27, 28, 14, 15, 17, 20, 25, 26, 5, 12, 22, 26, 29, 30, 2, 3, 12, 21, 23, 24, 6, 14, 15, 19, 25, 27, 4, 8, 9, 14, 23, 28, 2, 13, 18, 21, 22, 30, 2, 12, 15, 20, 22, 27, 4, 15, 16, 18, 19, 29, 2, 3, 10, 15, 16, 26, 4, 5, 9, 18, 29, 30, 4, 5, 7, 10, 21, 22, 5, 6, 8, 9, 20, 29, 4, 15, 18, 19, 25, 30, 8, 18, 19, 25, 26, 27, 2, 4, 7, 12, 14, 17, 2, 4, 11, 19, 20, 29, 7, 9, 18, 27, 28, 29, 2, 3, 4, 20, 27, 28, 3, 16, 22, 23, 25, 26, 8, 10, 11, 20, 28, 29, 4, 7, 8, 24, 28, 29, 3, 4, 5, 21, 22, 25, 4, 13, 14, 16, 19, 21, 4, 5, 10, 14, 22, 30, 5, 20, 21, 22, 25, 28, 3, 15, 16, 23, 24, 30, 1, 2, 26, 28, 29, 30, 5, 6, 9, 12, 16, 24, 15, 16, 18, 19, 22, 23, 7, 11, 13, 18, 21, 23, 1, 7, 15, 22, 24, 27, 8, 9, 15, 17, 29, 30, 1, 3, 16, 17, 19, 23, 2, 10, 11, 19, 20, 25, 5, 7, 13, 17, 23, 28, 8, 9, 20, 21, 22, 27, 4, 5, 11, 13, 25, 27, 2, 3, 14, 15, 18, 23, 1, 13, 15, 18, 19, 25, 1, 4, 13, 14, 15, 30, 4, 16, 21, 25, 26, 28, 8, 9, 11, 18, 20, 29, 6, 10, 11, 24, 25, 30];
rreq = [|17, 17, 17, 16, 15, 15, 25, 24, 24, 23, 22, 22, 15, 14, 13, 13, 13, 12, 28, 22, 21, 17, 12, 10, 27, 22, 20, 17, 15, 9, 27, 26, 25, 25, 25, 24, 20, 20, 20, 19, 19, 19, 28, 28, 27, 26, 25, 23, 25, 24, 24, 24, 24, 24, 17, 14, 11, 8, 5, 2, 24, 21, 19, 13, 9, 5, 15, 13, 12, 12, 11, 10, 15, 13, 11, 11, 8, 6, 29, 27, 27, 27, 25, 25, 15, 13, 10, 9, 4, 4, 4, 4, 4, 3, 3, 2, 7, 7, 7, 6, 6, 6, 24, 22, 18, 17, 14, 12, 19, 19, 19, 19, 19, 19, 8, 7, 7, 6, 4, 3, 23, 20, 18, 16, 14, 11, 29, 25, 24, 21, 19, 16, 3, 3, 3, 2, 2, 2, 30, 27, 26, 22, 21, 19, 22, 20, 17, 13, 7, 4, 21, 18, 18, 17, 16, 15, 13, 13, 11, 9, 8, 5, 14, 12, 11, 10, 9, 9, 28, 21, 19, 14, 11, 11, 21, 18, 16, 12, 7, 4, 20, 19, 15, 8, 8, 3, 21, 20, 20, 19, 19, 19, 14, 13, 13, 12, 11, 11, 28, 28, 28, 28, 27, 27, 13, 11, 11, 10, 9, 8, 25, 22, 22, 16, 13, 12, 29, 26, 26, 25, 23, 23, 22, 20, 17, 14, 13, 7, 27, 25, 22, 19, 17, 14, 25, 22, 19, 17, 15, 15, 26, 22, 18, 14, 11, 10, 15, 15, 14, 12, 11, 10, 4, 4, 4, 3, 2, 2, 21, 20, 19, 19, 17, 17, 20, 18, 18, 17, 16, 15, 25, 25, 21, 20, 19, 16, 15, 14, 14, 12, 12, 11, 26, 25, 22, 21, 18, 17, 14, 13, 13, 13, 13, 13, 28, 26, 20, 17, 14, 11
 |28, 23, 17, 14, 11, 7, 10, 9, 9, 9, 7, 7, 15, 14, 13, 12, 12, 11, 24, 23, 22, 21, 19, 19, 11, 11, 11, 11, 11, 11, 16, 16, 15, 13, 12, 11, 16, 14, 14, 12, 12, 11, 26, 23, 18, 14, 12, 7, 23, 18, 15, 10, 8, 3, 18, 17, 16, 15, 14, 14, 28, 25, 23, 21, 17, 12, 19, 19, 19, 18, 18, 18, 3, 3, 3, 2, 2, 1, 12, 10, 9, 7, 6, 4, 20, 19, 19, 18, 16, 14, 21, 18, 18, 15, 13, 13, 10, 9, 7, 6, 5, 4, 29, 26, 25, 24, 23, 23, 18, 18, 18, 18, 18, 18, 15, 14, 14, 12, 11, 11, 17, 17, 15, 14, 12, 11, 27, 26, 25, 22, 21, 20, 11, 11, 7, 5, 4, 3, 22, 21, 21, 19, 18, 18, 21, 16, 16, 9, 9, 4, 6, 6, 5, 3, 2, 2, 18, 16, 13, 12, 9, 8, 6, 5, 5, 4, 4, 3, 21, 16, 16, 12, 12, 8, 26, 23, 21, 20, 16, 12, 24, 23, 21, 20, 20, 17, 14, 14, 13, 11, 10, 10, 20, 14, 12, 11, 6, 5, 19, 19, 18, 18, 18, 17, 17, 14, 12, 10, 8, 5, 29, 24, 24, 22, 20, 18, 18, 16, 14, 13, 11, 9, 3, 2, 2, 2, 2, 2, 29, 28, 28, 28, 28, 28, 24, 19, 17, 10, 8, 5, 22, 22, 20, 20, 18, 18, 28, 24, 16, 15, 11, 3, 27, 22, 20, 14, 10, 8, 22, 19, 18, 16, 16, 14, 14, 14, 14, 14, 14, 14, 22, 21, 21, 20, 20, 19, 17, 17, 15, 15, 14, 13, 5, 5, 5, 5, 4, 4, 24, 23, 22, 21, 19, 19, 17, 14, 10, 10, 4, 2
 |6, 5, 4, 2, 1, 1, 14, 11, 11, 10, 8, 7, 27, 24, 21, 17, 17, 13, 17, 15, 14, 13, 13, 12, 18, 15, 14, 10, 9, 6, 5, 5, 5, 5, 5, 5, 4, 3, 3, 2, 1, 1, 28, 27, 26, 24, 21, 20, 27, 26, 20, 18, 14, 11, 23, 22, 22, 21, 21, 21, 14, 14, 12, 9, 6, 5, 27, 27, 27, 27, 26, 26, 16, 16, 16, 15, 15, 15, 7, 5, 5, 4, 3, 1, 11, 9, 9, 5, 3, 3, 25, 25, 18, 16, 13, 8, 19, 18, 17, 17, 16, 15, 17, 15, 14, 13, 13, 12, 14, 13, 13, 13, 13, 13, 22, 22, 22, 22, 21, 21, 17, 17, 11, 7, 4, 1, 19, 19, 19, 19, 19, 19, 3, 3, 3, 3, 2, 2, 16, 13, 11, 7, 4, 3, 23, 21, 18, 14, 13, 10, 26, 25, 23, 21, 18, 16, 27, 27, 27, 27, 26, 26, 15, 15, 14, 12, 11, 10, 20, 13, 12, 9, 4, 1, 21, 18, 13, 12, 7, 7, 10, 9, 9, 9, 9, 9, 16, 12, 10, 9, 7, 4, 26, 26, 22, 22, 20, 17, 18, 18, 13, 9, 5, 2, 18, 17, 17, 17, 17, 17, 20, 18, 18, 14, 10, 8, 24, 22, 22, 19, 17, 16, 27, 26, 25, 23, 22, 21, 24, 22, 20, 17, 15, 14, 28, 26, 24, 23, 20, 19, 19, 18, 14, 13, 8, 6, 22, 22, 20, 20, 18, 17, 19, 18, 17, 16, 15, 15, 21, 20, 17, 16, 13, 11, 14, 14, 11, 10, 8, 4, 25, 21, 15, 10, 5, 4, 10, 10, 10, 10, 10, 10, 27, 23, 23, 17, 17, 13, 20, 19, 17, 16, 16, 15, 24, 23, 22, 19, 18, 15
 |26, 22, 19, 16, 16, 10, 12, 11, 11, 11, 11, 11, 15, 13, 12, 10, 9, 6, 22, 22, 20, 18, 17, 16, 12, 11, 10, 10, 8, 6, 12, 10, 9, 8, 8, 7, 28, 27, 27, 27, 27, 27, 23, 23, 21, 20, 19, 19, 28, 26, 24, 22, 21, 19, 20, 20, 15, 12, 9, 4, 15, 14, 14, 14, 13, 13, 23, 21, 21, 20, 19, 17, 12, 11, 11, 11, 11, 11, 19, 17, 15, 12, 11, 9, 18, 17, 16, 16, 16, 15, 28, 27, 26, 24, 23, 22, 9, 9, 8, 7, 7, 6, 25, 24, 24, 22, 22, 21, 23, 21, 18, 18, 16, 14, 24, 20, 19, 16, 12, 11, 17, 16, 16, 15, 15, 14, 26, 23, 21, 18, 16, 12, 25, 23, 21, 20, 14, 12, 10, 10, 8, 8, 7, 5, 11, 11, 9, 8, 7, 6, 23, 21, 21, 18, 17, 17, 12, 9, 9, 6, 5, 3, 25, 23, 21, 19, 16, 14, 24, 23, 21, 19, 17, 16, 4, 4, 4, 3, 3, 2, 28, 20, 15, 11, 9, 3, 24, 19, 19, 13, 12, 7, 7, 6, 6, 6, 5, 5, 21, 19, 14, 11, 10, 6, 9, 9, 7, 6, 5, 3, 23, 21, 20, 18, 18, 16, 18, 17, 12, 12, 8, 6, 12, 12, 11, 11, 10, 9, 19, 18, 17, 16, 15, 15, 28, 27, 25, 20, 19, 18, 24, 20, 15, 10, 8, 2, 18, 17, 16, 16, 14, 14, 19, 15, 15, 10, 8, 8, 22, 20, 16, 11, 10, 8, 19, 19, 18, 18, 18, 17, 24, 24, 24, 24, 24, 24, 20, 15, 15, 11, 9, 7, 25, 24, 23, 23, 23, 22, 5, 5, 5, 5, 5, 5, 20, 18, 15, 13, 8, 5
 |27, 21, 20, 14, 10, 8, 27, 25, 24, 19, 16, 14, 29, 25, 24, 20, 19, 16, 17, 16, 16, 16, 16, 16, 12, 11, 11, 11, 10, 9, 22, 18, 18, 15, 11, 9, 29, 27, 24, 23, 22, 20, 20, 19, 18, 17, 16, 15, 9, 8, 6, 5, 4, 3, 19, 15, 15, 10, 8, 3, 20, 20, 20, 20, 19, 19, 21, 19, 18, 17, 16, 15, 26, 20, 16, 15, 10, 10, 10, 9, 9, 9, 8, 8, 12, 9, 8, 7, 6, 4, 25, 23, 19, 17, 13, 11, 25, 22, 19, 12, 11, 5, 25, 25, 25, 24, 23, 23, 24, 22, 20, 20, 17, 16, 29, 29, 29, 28, 28, 27, 28, 26, 24, 24, 22, 20, 28, 24, 22, 20, 17, 13, 27, 24, 21, 21, 16, 13, 19, 16, 14, 11, 7, 6, 20, 16, 16, 13, 11, 6, 24, 24, 20, 16, 12, 12, 28, 27, 25, 24, 24, 22, 28, 25, 20, 15, 13, 8, 27, 22, 18, 15, 12, 10, 23, 22, 22, 22, 21, 21, 29, 22, 16, 13, 8, 5, 16, 14, 13, 12, 11, 11, 29, 22, 17, 15, 11, 7, 10, 8, 8, 5, 5, 4, 18, 17, 17, 16, 16, 16, 26, 21, 16, 13, 7, 6, 13, 12, 10, 10, 9, 8, 28, 26, 23, 22, 18, 16, 28, 27, 27, 25, 25, 23, 15, 15, 14, 11, 11, 10, 23, 22, 19, 18, 15, 14, 23, 22, 22, 22, 22, 22, 14, 14, 12, 11, 11, 10, 7, 6, 4, 4, 2, 2, 13, 11, 10, 10, 8, 8, 29, 27, 27, 26, 25, 25, 20, 19, 19, 19, 17, 17, 14, 14, 14, 14, 14, 14, 21, 21, 21, 21, 21, 21, 23, 18, 15, 14, 10, 5
 |26, 24, 19, 17, 13, 11, 21, 19, 17, 17, 15, 13, 27, 26, 26, 26, 26, 26, 28, 20, 17, 13, 9, 3, 13, 9, 7, 5, 3, 3, 26, 25, 21, 21, 19, 16, 20, 19, 19, 17, 15, 15, 2, 2, 2, 1, 1, 1, 16, 15, 10, 10, 7, 2, 26, 25, 17, 17, 10, 7, 7, 6, 6, 6, 6, 6, 26, 25, 22, 19, 18, 14, 9, 9, 8, 7, 7, 6, 25, 23, 23, 19, 17, 17, 25, 24, 24, 23, 21, 21, 11, 11, 11, 11, 11, 11, 24, 21, 17, 15, 9, 7, 11, 10, 10, 9, 7, 7, 12, 11, 10, 10, 9, 8, 25, 24, 24, 22, 22, 21, 12, 11, 11, 10, 8, 8, 9, 9, 9, 8, 7, 7, 8, 8, 8, 7, 6, 6, 26, 25, 25, 23, 20, 20, 19, 19, 19, 19, 19, 19, 24, 24, 24, 24, 23, 23, 13, 10, 10, 8, 4, 4, 27, 27, 23, 21, 20, 19, 6, 5, 5, 4, 4, 4, 29, 29, 29, 29, 29, 29, 21, 20, 18, 18, 16, 16, 28, 27, 27, 26, 25, 25, 29, 25, 21, 19, 18, 15, 20, 20, 20, 20, 20, 20, 7, 6, 6, 5, 5, 4, 26, 26, 25, 25, 24, 24, 13, 12, 12, 11, 11, 10, 17, 15, 14, 13, 11, 8, 16, 14, 11, 11, 5, 4, 9, 8, 7, 7, 6, 6, 26, 23, 22, 18, 18, 14, 23, 22, 22, 22, 21, 20, 25, 24, 23, 18, 18, 14, 25, 23, 21, 20, 20, 19, 27, 21, 18, 16, 12, 8, 17, 14, 11, 9, 9, 4, 25, 23, 21, 19, 13, 13, 21, 18, 17, 14, 14, 10, 24, 21, 20, 14, 11, 11, 17, 16, 15, 15, 14, 13
 |18, 16, 16, 15, 15, 14, 18, 14, 13, 8, 7, 5, 17, 12, 12, 10, 8, 6, 15, 14, 13, 11, 8, 6, 8, 7, 6, 6, 4, 2, 22, 19, 17, 16, 16, 14, 18, 13, 12, 7, 6, 2, 22, 21, 21, 19, 19, 17, 17, 13, 11, 10, 7, 6, 25, 22, 19, 17, 12, 9, 27, 19, 15, 11, 5, 1, 30, 27, 26, 26, 23, 23, 19, 18, 17, 17, 17, 16, 10, 10, 10, 10, 10, 10, 16, 15, 10, 8, 6, 4, 11, 10, 10, 10, 10, 10, 28, 25, 25, 21, 19, 18, 22, 19, 14, 12, 8, 5, 27, 24, 22, 16, 13, 13, 11, 11, 11, 11, 10, 10, 27, 27, 26, 26, 25, 25, 24, 22, 22, 20, 18, 16, 22, 20, 17, 15, 12, 8, 26, 21, 18, 16, 12, 6, 26, 23, 19, 15, 7, 3, 22, 22, 22, 22, 22, 22, 24, 23, 22, 22, 20, 20, 23, 19, 15, 14, 7, 6, 25, 23, 23, 22, 22, 21, 18, 16, 11, 9, 6, 5, 10, 8, 7, 5, 4, 4, 29, 26, 23, 21, 21, 18, 27, 22, 21, 14, 10, 7, 28, 27, 25, 25, 24, 23, 6, 6, 6, 6, 6, 6, 14, 14, 14, 14, 14, 14, 17, 15, 15, 15, 14, 13, 9, 9, 8, 8, 7, 7, 18, 17, 17, 16, 15, 15, 20, 17, 14, 11, 10, 7, 16, 15, 10, 9, 6, 3, 17, 17, 17, 17, 17, 17, 17, 15, 13, 13, 10, 9, 27, 27, 27, 27, 27, 27, 20, 19, 19, 18, 16, 16, 24, 19, 18, 13, 5, 5, 10, 9, 7, 7, 6, 3, 5, 5, 5, 4, 4, 3, 23, 19, 16, 13, 10, 9, 22, 20, 20, 18, 17, 16
 |6, 6, 6, 6, 6, 6, 26, 25, 25, 23, 23, 22, 14, 13, 9, 8, 4, 3, 17, 13, 11, 7, 4, 3, 17, 15, 14, 12, 11, 9, 21, 18, 15, 15, 13, 11, 9, 8, 8, 7, 6, 6, 14, 14, 13, 13, 12, 12, 8, 7, 6, 4, 3, 3, 23, 21, 20, 19, 15, 14, 6, 5, 5, 3, 3, 2, 20, 19, 17, 17, 15, 14, 17, 16, 16, 14, 14, 13, 14, 14, 14, 14, 13, 13, 14, 11, 9, 5, 3, 3, 29, 29, 28, 28, 27, 26, 17, 17, 17, 17, 17, 17, 7, 7, 6, 5, 3, 3, 6, 6, 4, 3, 2, 1, 9, 9, 9, 9, 9, 9, 27, 25, 20, 20, 16, 13, 15, 14, 12, 11, 11, 10, 22, 20, 19, 17, 16, 13, 20, 19, 17, 16, 15, 14, 19, 19, 18, 17, 15, 15, 8, 7, 6, 6, 5, 5, 17, 17, 15, 12, 11, 8, 8, 8, 7, 6, 5, 5, 23, 23, 17, 11, 9, 6, 17, 16, 11, 8, 6, 2, 8, 8, 6, 6, 4, 2, 14, 13, 12, 12, 10, 10, 18, 18, 15, 14, 11, 9, 23, 20, 20, 18, 17, 16, 26, 25, 22, 17, 16, 12, 29, 27, 27, 27, 26, 25, 16, 13, 12, 8, 7, 4, 18, 15, 13, 8, 7, 3, 25, 23, 21, 14, 12, 5, 13, 12, 11, 9, 9, 8, 20, 16, 15, 8, 8, 4, 9, 9, 8, 6, 5, 5, 11, 9, 6, 5, 2, 2, 23, 22, 22, 22, 21, 21, 16, 15, 15, 13, 11, 10, 16, 16, 16, 16, 16, 16, 19, 16, 13, 12, 10, 6, 12, 11, 10, 10, 8, 8, 19, 13, 11, 10, 7, 4, 26, 22, 21, 16, 12, 11|];